p edge 80 1597
e 1 6
e 1 8
e 1 9
e 1 10
e 1 11
e 1 12
e 1 13
e 1 14
e 1 15
e 1 17
e 1 18
e 1 19
e 1 26
e 1 31
e 1 32
e 1 33
e 1 35
e 1 39
e 1 40
e 1 43
e 1 44
e 1 45
e 1 51
e 1 52
e 1 53
e 1 55
e 1 56
e 1 58
e 1 59
e 1 60
e 1 62
e 1 66
e 1 69
e 1 70
e 1 71
e 1 72
e 1 73
e 1 77
e 1 78
e 2 4
e 2 7
e 2 8
e 2 9
e 2 10
e 2 12
e 2 15
e 2 16
e 2 20
e 2 22
e 2 23
e 2 24
e 2 27
e 2 28
e 2 29
e 2 33
e 2 35
e 2 36
e 2 38
e 2 42
e 2 43
e 2 44
e 2 45
e 2 46
e 2 47
e 2 50
e 2 51
e 2 55
e 2 56
e 2 61
e 2 63
e 2 65
e 2 67
e 2 68
e 2 72
e 2 75
e 2 76
e 2 78
e 3 5
e 3 8
e 3 10
e 3 11
e 3 12
e 3 13
e 3 14
e 3 15
e 3 16
e 3 18
e 3 19
e 3 21
e 3 25
e 3 26
e 3 27
e 3 30
e 3 35
e 3 36
e 3 38
e 3 40
e 3 42
e 3 43
e 3 44
e 3 46
e 3 51
e 3 52
e 3 53
e 3 54
e 3 55
e 3 57
e 3 58
e 3 59
e 3 65
e 3 67
e 3 68
e 3 69
e 3 70
e 3 72
e 3 73
e 3 74
e 3 78
e 3 79
e 4 7
e 4 8
e 4 13
e 4 18
e 4 19
e 4 20
e 4 23
e 4 25
e 4 27
e 4 28
e 4 30
e 4 31
e 4 33
e 4 34
e 4 40
e 4 42
e 4 43
e 4 45
e 4 48
e 4 50
e 4 51
e 4 53
e 4 54
e 4 58
e 4 59
e 4 61
e 4 62
e 4 64
e 4 66
e 4 68
e 4 72
e 4 75
e 4 76
e 4 77
e 4 78
e 4 79
e 4 80
e 5 7
e 5 8
e 5 9
e 5 10
e 5 11
e 5 12
e 5 21
e 5 23
e 5 25
e 5 26
e 5 27
e 5 28
e 5 30
e 5 31
e 5 34
e 5 35
e 5 36
e 5 41
e 5 44
e 5 45
e 5 46
e 5 47
e 5 51
e 5 52
e 5 53
e 5 54
e 5 57
e 5 58
e 5 60
e 5 63
e 5 66
e 5 67
e 5 71
e 5 72
e 5 73
e 5 75
e 5 76
e 5 78
e 5 80
e 6 9
e 6 10
e 6 11
e 6 12
e 6 16
e 6 17
e 6 22
e 6 24
e 6 25
e 6 26
e 6 27
e 6 28
e 6 32
e 6 34
e 6 35
e 6 36
e 6 37
e 6 38
e 6 39
e 6 40
e 6 41
e 6 48
e 6 49
e 6 50
e 6 51
e 6 52
e 6 53
e 6 54
e 6 58
e 6 59
e 6 61
e 6 64
e 6 68
e 6 70
e 6 71
e 6 73
e 6 75
e 6 79
e 7 8
e 7 10
e 7 12
e 7 14
e 7 16
e 7 22
e 7 23
e 7 24
e 7 26
e 7 27
e 7 28
e 7 33
e 7 34
e 7 35
e 7 38
e 7 40
e 7 41
e 7 43
e 7 44
e 7 46
e 7 55
e 7 56
e 7 60
e 7 61
e 7 62
e 7 63
e 7 64
e 7 65
e 7 66
e 7 67
e 7 69
e 7 70
e 7 74
e 7 75
e 7 77
e 7 80
e 8 10
e 8 11
e 8 12
e 8 13
e 8 18
e 8 19
e 8 22
e 8 25
e 8 27
e 8 28
e 8 29
e 8 30
e 8 31
e 8 34
e 8 35
e 8 36
e 8 38
e 8 40
e 8 41
e 8 46
e 8 47
e 8 48
e 8 49
e 8 50
e 8 53
e 8 54
e 8 55
e 8 56
e 8 57
e 8 60
e 8 61
e 8 67
e 8 68
e 8 72
e 8 73
e 8 75
e 8 77
e 8 78
e 8 79
e 9 10
e 9 12
e 9 14
e 9 16
e 9 20
e 9 21
e 9 25
e 9 26
e 9 28
e 9 31
e 9 32
e 9 33
e 9 35
e 9 38
e 9 40
e 9 43
e 9 45
e 9 49
e 9 52
e 9 56
e 9 57
e 9 58
e 9 60
e 9 61
e 9 64
e 9 66
e 9 68
e 9 71
e 9 74
e 9 75
e 9 79
e 10 11
e 10 13
e 10 14
e 10 17
e 10 20
e 10 21
e 10 23
e 10 25
e 10 26
e 10 27
e 10 28
e 10 30
e 10 31
e 10 33
e 10 38
e 10 39
e 10 40
e 10 41
e 10 42
e 10 43
e 10 45
e 10 47
e 10 53
e 10 54
e 10 56
e 10 58
e 10 61
e 10 64
e 10 66
e 10 67
e 10 69
e 10 75
e 10 78
e 10 79
e 10 80
e 11 12
e 11 13
e 11 14
e 11 15
e 11 17
e 11 18
e 11 20
e 11 23
e 11 24
e 11 29
e 11 33
e 11 34
e 11 35
e 11 37
e 11 40
e 11 43
e 11 44
e 11 45
e 11 46
e 11 47
e 11 52
e 11 53
e 11 56
e 11 57
e 11 58
e 11 59
e 11 61
e 11 62
e 11 63
e 11 66
e 11 72
e 11 73
e 11 74
e 11 75
e 11 78
e 12 14
e 12 15
e 12 16
e 12 19
e 12 22
e 12 24
e 12 25
e 12 26
e 12 30
e 12 31
e 12 32
e 12 34
e 12 35
e 12 36
e 12 37
e 12 38
e 12 43
e 12 44
e 12 49
e 12 50
e 12 54
e 12 56
e 12 57
e 12 58
e 12 59
e 12 61
e 12 62
e 12 65
e 12 66
e 12 67
e 12 70
e 12 72
e 12 73
e 12 75
e 12 78
e 12 80
e 13 16
e 13 18
e 13 20
e 13 23
e 13 26
e 13 31
e 13 33
e 13 35
e 13 38
e 13 39
e 13 40
e 13 42
e 13 43
e 13 45
e 13 46
e 13 48
e 13 51
e 13 53
e 13 54
e 13 57
e 13 60
e 13 61
e 13 62
e 13 64
e 13 65
e 13 67
e 13 68
e 13 70
e 13 73
e 13 79
e 13 80
e 14 16
e 14 18
e 14 19
e 14 20
e 14 21
e 14 22
e 14 24
e 14 29
e 14 38
e 14 40
e 14 41
e 14 43
e 14 46
e 14 52
e 14 54
e 14 56
e 14 57
e 14 58
e 14 66
e 14 69
e 14 73
e 14 76
e 14 78
e 15 16
e 15 17
e 15 18
e 15 19
e 15 20
e 15 22
e 15 24
e 15 25
e 15 28
e 15 30
e 15 31
e 15 32
e 15 34
e 15 35
e 15 39
e 15 40
e 15 41
e 15 42
e 15 44
e 15 45
e 15 46
e 15 48
e 15 51
e 15 56
e 15 58
e 15 59
e 15 60
e 15 61
e 15 62
e 15 63
e 15 64
e 15 65
e 15 66
e 15 67
e 15 71
e 15 72
e 15 73
e 15 75
e 15 77
e 15 78
e 15 79
e 15 80
e 16 20
e 16 21
e 16 22
e 16 23
e 16 24
e 16 25
e 16 26
e 16 27
e 16 29
e 16 30
e 16 32
e 16 34
e 16 35
e 16 38
e 16 39
e 16 41
e 16 45
e 16 48
e 16 49
e 16 50
e 16 52
e 16 53
e 16 60
e 16 63
e 16 64
e 16 66
e 16 67
e 16 69
e 16 72
e 16 74
e 16 76
e 16 77
e 16 79
e 16 80
e 17 19
e 17 22
e 17 32
e 17 36
e 17 37
e 17 38
e 17 40
e 17 42
e 17 45
e 17 48
e 17 49
e 17 51
e 17 52
e 17 54
e 17 56
e 17 58
e 17 61
e 17 62
e 17 66
e 17 67
e 17 72
e 17 73
e 17 74
e 17 80
e 18 19
e 18 20
e 18 21
e 18 22
e 18 24
e 18 25
e 18 26
e 18 28
e 18 29
e 18 30
e 18 32
e 18 33
e 18 36
e 18 37
e 18 38
e 18 39
e 18 41
e 18 44
e 18 45
e 18 46
e 18 48
e 18 49
e 18 50
e 18 53
e 18 54
e 18 55
e 18 56
e 18 57
e 18 58
e 18 60
e 18 64
e 18 67
e 18 71
e 18 72
e 18 74
e 18 75
e 18 77
e 18 79
e 19 20
e 19 22
e 19 23
e 19 28
e 19 29
e 19 30
e 19 31
e 19 32
e 19 33
e 19 35
e 19 42
e 19 43
e 19 44
e 19 46
e 19 47
e 19 48
e 19 51
e 19 52
e 19 53
e 19 54
e 19 61
e 19 62
e 19 64
e 19 65
e 19 71
e 19 73
e 19 77
e 19 79
e 19 80
e 20 21
e 20 22
e 20 23
e 20 26
e 20 27
e 20 28
e 20 29
e 20 30
e 20 31
e 20 33
e 20 34
e 20 36
e 20 38
e 20 42
e 20 45
e 20 46
e 20 47
e 20 48
e 20 53
e 20 54
e 20 56
e 20 57
e 20 58
e 20 59
e 20 64
e 20 66
e 20 69
e 20 70
e 20 72
e 20 73
e 20 75
e 20 80
e 21 23
e 21 25
e 21 29
e 21 32
e 21 34
e 21 35
e 21 36
e 21 39
e 21 40
e 21 41
e 21 42
e 21 46
e 21 47
e 21 48
e 21 50
e 21 59
e 21 60
e 21 66
e 21 68
e 21 69
e 21 71
e 21 76
e 21 77
e 21 79
e 22 24
e 22 25
e 22 27
e 22 29
e 22 30
e 22 31
e 22 32
e 22 33
e 22 35
e 22 37
e 22 38
e 22 40
e 22 41
e 22 43
e 22 44
e 22 48
e 22 54
e 22 55
e 22 59
e 22 61
e 22 63
e 22 64
e 22 67
e 22 68
e 22 69
e 22 71
e 22 72
e 22 73
e 22 74
e 22 75
e 22 76
e 22 77
e 22 80
e 23 24
e 23 25
e 23 26
e 23 28
e 23 29
e 23 31
e 23 33
e 23 36
e 23 38
e 23 44
e 23 46
e 23 50
e 23 51
e 23 52
e 23 55
e 23 61
e 23 63
e 23 65
e 23 66
e 23 68
e 23 70
e 23 73
e 23 76
e 23 77
e 23 80
e 24 25
e 24 28
e 24 29
e 24 30
e 24 32
e 24 33
e 24 39
e 24 42
e 24 43
e 24 46
e 24 47
e 24 48
e 24 49
e 24 50
e 24 54
e 24 55
e 24 58
e 24 60
e 24 62
e 24 65
e 24 67
e 24 68
e 24 69
e 24 70
e 24 71
e 24 75
e 24 77
e 24 78
e 25 26
e 25 27
e 25 28
e 25 30
e 25 32
e 25 33
e 25 36
e 25 39
e 25 41
e 25 44
e 25 45
e 25 52
e 25 53
e 25 54
e 25 55
e 25 56
e 25 57
e 25 58
e 25 61
e 25 66
e 25 71
e 25 72
e 25 73
e 25 75
e 25 76
e 26 27
e 26 29
e 26 35
e 26 36
e 26 37
e 26 38
e 26 40
e 26 42
e 26 43
e 26 45
e 26 46
e 26 47
e 26 48
e 26 49
e 26 50
e 26 51
e 26 52
e 26 53
e 26 54
e 26 56
e 26 57
e 26 58
e 26 59
e 26 61
e 26 62
e 26 65
e 26 66
e 26 68
e 26 69
e 26 70
e 26 71
e 26 72
e 26 73
e 26 75
e 26 77
e 26 79
e 27 30
e 27 32
e 27 33
e 27 34
e 27 37
e 27 39
e 27 41
e 27 43
e 27 45
e 27 46
e 27 47
e 27 49
e 27 51
e 27 53
e 27 55
e 27 57
e 27 58
e 27 59
e 27 60
e 27 61
e 27 62
e 27 64
e 27 66
e 27 70
e 27 72
e 27 75
e 27 76
e 27 78
e 27 79
e 28 29
e 28 31
e 28 32
e 28 33
e 28 36
e 28 38
e 28 40
e 28 44
e 28 47
e 28 48
e 28 49
e 28 53
e 28 55
e 28 59
e 28 65
e 28 66
e 28 69
e 28 70
e 28 71
e 28 72
e 28 74
e 28 75
e 28 77
e 28 78
e 28 79
e 29 31
e 29 32
e 29 36
e 29 41
e 29 43
e 29 45
e 29 46
e 29 47
e 29 48
e 29 50
e 29 51
e 29 54
e 29 59
e 29 61
e 29 62
e 29 65
e 29 68
e 29 70
e 29 71
e 29 72
e 29 74
e 29 75
e 29 76
e 29 78
e 29 80
e 30 39
e 30 40
e 30 42
e 30 45
e 30 46
e 30 48
e 30 49
e 30 53
e 30 54
e 30 56
e 30 57
e 30 59
e 30 61
e 30 62
e 30 63
e 30 64
e 30 66
e 30 67
e 30 69
e 30 70
e 30 73
e 30 75
e 30 76
e 30 79
e 31 35
e 31 37
e 31 38
e 31 39
e 31 40
e 31 41
e 31 42
e 31 45
e 31 49
e 31 50
e 31 52
e 31 53
e 31 54
e 31 55
e 31 56
e 31 63
e 31 64
e 31 66
e 31 67
e 31 70
e 31 71
e 31 77
e 31 79
e 31 80
e 32 34
e 32 41
e 32 42
e 32 43
e 32 44
e 32 46
e 32 48
e 32 50
e 32 53
e 32 56
e 32 57
e 32 58
e 32 62
e 32 63
e 32 64
e 32 66
e 32 67
e 32 69
e 32 71
e 32 73
e 32 75
e 32 76
e 32 78
e 33 34
e 33 36
e 33 40
e 33 42
e 33 43
e 33 47
e 33 50
e 33 52
e 33 55
e 33 58
e 33 59
e 33 61
e 33 62
e 33 64
e 33 65
e 33 67
e 33 68
e 33 69
e 33 72
e 33 74
e 33 76
e 33 78
e 33 80
e 34 36
e 34 37
e 34 39
e 34 40
e 34 42
e 34 44
e 34 45
e 34 46
e 34 48
e 34 52
e 34 53
e 34 54
e 34 57
e 34 58
e 34 60
e 34 61
e 34 64
e 34 67
e 34 68
e 34 70
e 34 71
e 34 72
e 34 74
e 34 75
e 34 76
e 34 77
e 34 79
e 35 36
e 35 39
e 35 41
e 35 44
e 35 46
e 35 50
e 35 51
e 35 53
e 35 54
e 35 57
e 35 60
e 35 63
e 35 64
e 35 69
e 35 70
e 35 73
e 35 74
e 35 75
e 35 77
e 35 78
e 35 80
e 36 37
e 36 38
e 36 43
e 36 44
e 36 45
e 36 46
e 36 47
e 36 51
e 36 52
e 36 53
e 36 55
e 36 56
e 36 57
e 36 58
e 36 59
e 36 61
e 36 64
e 36 65
e 36 67
e 36 68
e 36 75
e 36 76
e 36 78
e 36 79
e 36 80
e 37 39
e 37 43
e 37 44
e 37 46
e 37 49
e 37 52
e 37 53
e 37 55
e 37 56
e 37 59
e 37 62
e 37 63
e 37 66
e 37 67
e 37 71
e 37 72
e 37 76
e 37 77
e 37 78
e 37 80
e 38 39
e 38 40
e 38 41
e 38 44
e 38 47
e 38 49
e 38 51
e 38 52
e 38 54
e 38 55
e 38 60
e 38 63
e 38 64
e 38 65
e 38 67
e 38 68
e 38 69
e 38 70
e 38 73
e 38 75
e 38 77
e 39 43
e 39 45
e 39 46
e 39 49
e 39 50
e 39 51
e 39 52
e 39 54
e 39 55
e 39 58
e 39 60
e 39 62
e 39 64
e 39 65
e 39 68
e 39 69
e 39 70
e 39 71
e 39 73
e 39 75
e 39 76
e 39 77
e 39 78
e 40 43
e 40 44
e 40 46
e 40 47
e 40 48
e 40 49
e 40 51
e 40 52
e 40 54
e 40 56
e 40 61
e 40 63
e 40 65
e 40 68
e 40 69
e 40 70
e 40 71
e 40 72
e 40 76
e 40 80
e 41 42
e 41 44
e 41 49
e 41 50
e 41 51
e 41 52
e 41 53
e 41 56
e 41 57
e 41 61
e 41 66
e 41 67
e 41 69
e 41 74
e 41 76
e 42 43
e 42 48
e 42 49
e 42 50
e 42 51
e 42 56
e 42 58
e 42 61
e 42 62
e 42 67
e 42 69
e 42 73
e 42 75
e 42 76
e 42 77
e 42 80
e 43 45
e 43 46
e 43 47
e 43 48
e 43 51
e 43 54
e 43 57
e 43 59
e 43 60
e 43 61
e 43 62
e 43 64
e 43 66
e 43 67
e 43 68
e 43 69
e 43 70
e 43 71
e 43 75
e 43 77
e 43 80
e 44 48
e 44 49
e 44 52
e 44 55
e 44 60
e 44 62
e 44 63
e 44 64
e 44 65
e 44 67
e 44 70
e 44 71
e 44 74
e 44 75
e 44 76
e 44 77
e 44 78
e 44 79
e 44 80
e 45 46
e 45 48
e 45 49
e 45 50
e 45 51
e 45 54
e 45 55
e 45 56
e 45 58
e 45 59
e 45 60
e 45 61
e 45 62
e 45 65
e 45 66
e 45 68
e 45 70
e 45 71
e 45 73
e 45 77
e 45 78
e 45 80
e 46 48
e 46 49
e 46 50
e 46 51
e 46 54
e 46 55
e 46 56
e 46 61
e 46 63
e 46 64
e 46 65
e 46 66
e 46 67
e 46 70
e 46 74
e 46 80
e 47 52
e 47 53
e 47 54
e 47 56
e 47 60
e 47 62
e 47 64
e 47 65
e 47 67
e 47 69
e 47 71
e 47 72
e 47 73
e 47 75
e 47 76
e 47 78
e 47 80
e 48 51
e 48 52
e 48 56
e 48 57
e 48 58
e 48 59
e 48 60
e 48 61
e 48 62
e 48 64
e 48 65
e 48 67
e 48 69
e 48 70
e 48 72
e 48 73
e 48 75
e 48 76
e 48 78
e 48 79
e 49 51
e 49 52
e 49 53
e 49 54
e 49 56
e 49 58
e 49 60
e 49 61
e 49 62
e 49 63
e 49 66
e 49 68
e 49 69
e 49 71
e 49 74
e 49 79
e 49 80
e 50 57
e 50 58
e 50 59
e 50 60
e 50 61
e 50 65
e 50 69
e 50 71
e 50 75
e 50 77
e 50 78
e 51 53
e 51 54
e 51 55
e 51 56
e 51 57
e 51 59
e 51 60
e 51 63
e 51 64
e 51 66
e 51 70
e 51 71
e 51 72
e 51 73
e 51 74
e 51 75
e 51 77
e 51 78
e 52 54
e 52 57
e 52 60
e 52 62
e 52 64
e 52 69
e 52 70
e 52 71
e 52 73
e 52 74
e 52 77
e 52 78
e 52 79
e 53 54
e 53 55
e 53 56
e 53 58
e 53 61
e 53 62
e 53 64
e 53 65
e 53 67
e 53 69
e 53 70
e 53 72
e 53 74
e 53 75
e 53 78
e 53 79
e 54 58
e 54 61
e 54 63
e 54 69
e 54 70
e 54 71
e 54 73
e 54 74
e 54 75
e 54 76
e 54 77
e 55 56
e 55 57
e 55 58
e 55 59
e 55 61
e 55 63
e 55 65
e 55 67
e 55 68
e 55 72
e 55 73
e 55 75
e 55 79
e 56 59
e 56 60
e 56 61
e 56 62
e 56 63
e 56 65
e 56 67
e 56 69
e 56 70
e 56 74
e 56 77
e 56 78
e 57 58
e 57 60
e 57 62
e 57 63
e 57 64
e 57 69
e 57 73
e 57 77
e 58 60
e 58 63
e 58 64
e 58 65
e 58 66
e 58 68
e 58 70
e 58 71
e 58 73
e 58 77
e 58 79
e 58 80
e 59 61
e 59 72
e 59 73
e 59 74
e 59 75
e 59 78
e 60 61
e 60 62
e 60 63
e 60 64
e 60 66
e 60 67
e 60 68
e 60 69
e 60 70
e 60 71
e 60 73
e 60 75
e 60 76
e 60 77
e 60 78
e 61 63
e 61 64
e 61 65
e 61 69
e 61 71
e 61 72
e 61 74
e 61 78
e 61 80
e 62 66
e 62 67
e 62 68
e 62 69
e 62 70
e 62 71
e 62 72
e 62 75
e 62 76
e 62 77
e 62 79
e 63 64
e 63 65
e 63 66
e 63 67
e 63 68
e 63 70
e 63 72
e 63 74
e 63 75
e 63 77
e 63 79
e 64 66
e 64 67
e 64 71
e 64 74
e 64 75
e 64 77
e 64 78
e 65 68
e 65 69
e 65 70
e 65 71
e 65 72
e 65 75
e 65 76
e 65 77
e 65 79
e 65 80
e 66 67
e 66 68
e 66 70
e 66 71
e 66 72
e 66 73
e 66 74
e 66 76
e 66 80
e 67 68
e 67 69
e 67 75
e 67 77
e 67 78
e 67 80
e 68 70
e 68 71
e 68 72
e 68 77
e 68 80
e 69 71
e 69 72
e 69 76
e 69 77
e 69 79
e 69 80
e 70 71
e 70 73
e 70 76
e 70 77
e 70 79
e 71 72
e 71 75
e 71 77
e 71 78
e 71 79
e 71 80
e 72 73
e 72 74
e 72 77
e 72 80
e 73 76
e 73 77
e 74 76
e 74 80
e 75 76
e 75 77
e 75 80
e 77 80
e 78 79
e 78 80
e 79 80